262 5
10 10 10 10 10 

0 0 0 0 0 0 1 2 
0 0 0 0 0 0 4 3 5 8 12 
6 0 0 1 0 0 3 11 10 4 
2 0 0 5 0 0 1 6 
2 0 0 1 0 0 1 6 
4 0 0 2 0 0 1 7 
3 0 0 5 0 0 1 9 
8 0 0 2 0 0 1 10 
7 0 0 4 0 0 1 13 
3 0 0 2 0 0 1 13 
8 0 0 2 0 0 1 13 
8 0 0 1 0 0 1 13 
0 0 0 0 0 0 1 14 
0 0 0 0 0 0 3 15 19 24 
8 0 0 0 0 1 2 17 16 
10 0 0 0 0 3 3 23 22 18 
4 0 0 0 0 4 3 23 22 18 
10 0 0 0 0 3 1 20 
3 0 0 0 0 2 1 20 
8 0 0 0 0 1 1 21 
1 0 0 0 0 4 1 25 
8 0 0 0 0 2 1 25 
5 0 0 0 0 2 1 25 
1 0 0 0 0 3 1 25 
0 0 0 0 0 0 3 26 58 70 
0 0 0 0 0 0 3 27 28 56 
1 1 0 1 1 0 2 55 29 
6 2 0 1 3 0 2 55 29 
10 2 0 2 2 0 2 35 30 
6 1 0 2 2 0 2 39 31 
3 3 0 2 1 0 3 54 53 32 
3 2 0 3 3 0 1 33 
3 4 0 4 2 0 2 43 34 
7 4 0 2 3 0 2 52 36 
5 2 0 3 4 0 3 52 39 37 
4 2 0 3 2 0 2 46 37 
2 3 0 1 3 0 1 38 
1 3 0 1 2 0 2 51 40 
7 4 0 1 2 0 1 40 
5 2 0 4 3 0 1 41 
3 1 0 5 2 0 3 50 45 42 
7 3 0 3 4 0 3 49 48 44 
2 5 0 2 2 0 2 50 49 
10 2 0 5 3 0 1 47 
7 4 0 3 2 0 1 48 
10 3 0 4 3 0 1 47 
2 1 0 1 5 0 1 57 
6 1 0 2 4 0 1 57 
1 2 0 6 1 0 1 57 
9 3 0 1 1 0 1 57 
10 3 0 3 3 0 1 57 
9 2 0 1 2 0 1 57 
5 4 0 1 3 0 1 57 
3 1 0 3 3 0 1 57 
6 3 0 3 3 0 2 57 194 
1 2 0 2 1 0 1 57 
0 0 0 0 0 0 1 262 
0 0 0 0 0 0 3 59 60 62 
2 0 1 0 0 0 2 63 61 
4 0 3 0 0 0 3 67 61 240 
1 0 3 0 0 0 2 68 64 
1 0 3 0 0 0 1 63 
6 0 1 0 0 0 2 67 65 
3 0 4 0 0 0 1 65 
7 0 4 0 0 0 1 66 
1 0 4 0 0 0 1 69 
3 0 1 0 0 0 1 69 
1 0 1 0 0 0 1 69 
0 0 0 0 0 0 5 102 114 136 158 180 
0 0 0 0 0 0 3 71 72 77 
2 0 0 1 1 1 2 82 73 
5 0 0 3 2 1 2 82 73 
7 0 0 3 2 1 2 78 74 
3 0 0 4 2 5 2 79 75 
3 0 0 3 2 3 1 76 
8 0 0 2 3 3 3 86 83 80 
7 0 0 2 1 2 2 82 81 
5 0 0 4 3 2 1 79 
10 0 0 2 6 1 2 86 81 
10 0 0 2 1 1 1 81 
9 0 0 2 4 1 3 91 89 84 
4 0 0 1 2 4 2 86 84 
1 0 0 2 3 4 2 91 85 
1 0 0 4 1 1 1 85 
2 0 0 1 2 2 2 93 87 
1 0 0 2 3 3 2 91 87 
4 0 0 2 3 1 1 88 
1 0 0 2 3 1 1 90 
4 0 0 3 1 3 1 90 
5 0 0 2 5 3 3 100 95 92 
3 0 0 2 1 4 2 100 92 
9 0 0 6 2 2 4 99 98 96 94 
9 0 0 7 2 2 2 96 94 
5 0 0 2 3 3 2 97 254 
3 0 0 2 3 1 1 96 
3 0 0 2 3 4 1 101 
1 0 0 3 2 3 1 101 
9 0 0 2 4 2 1 101 
7 0 0 1 3 5 1 101 
9 0 0 1 2 6 1 101 
0 0 0 0 0 0 1 262 
0 0 0 0 0 0 4 103 106 108 112 
1 0 1 0 0 0 1 104 
8 0 5 0 0 0 2 111 105 
6 0 2 0 0 0 2 110 107 
4 0 1 0 0 0 2 110 109 
3 0 5 0 0 0 2 109 239 
6 0 1 0 0 0 1 109 
3 0 2 0 0 0 1 113 
4 0 4 0 0 0 1 113 
8 0 2 0 0 0 1 113 
1 0 2 0 0 0 1 113 
0 0 0 0 0 0 5 202 214 226 238 250 
0 0 0 0 0 0 1 115 
4 0 0 1 1 0 2 121 116 
7 0 0 1 2 0 1 117 
10 0 0 4 2 0 3 134 132 118 
10 0 0 3 4 0 4 133 131 119 189 
10 0 0 3 2 0 2 128 120 
9 0 0 2 3 0 3 130 129 122 
9 0 0 1 2 0 5 132 131 128 126 123 
10 0 0 2 3 0 3 127 126 123 
2 0 0 2 2 0 1 124 
8 0 0 2 2 0 1 125 
1 0 0 3 5 0 1 135 
1 0 0 2 4 0 1 135 
3 0 0 3 1 0 1 135 
4 0 0 3 1 0 1 135 
2 0 0 3 1 0 1 135 
8 0 0 5 4 0 1 135 
6 0 0 5 2 0 1 135 
6 0 0 2 3 0 1 135 
4 0 0 2 2 0 1 135 
9 0 0 1 4 0 1 135 
0 0 0 0 0 0 1 262 
0 0 0 0 0 0 3 137 139 144 
6 0 0 1 0 1 1 138 
4 0 0 2 0 3 3 156 150 140 
8 0 0 3 0 2 2 150 140 
7 0 0 3 0 2 4 155 154 149 141 
6 0 0 4 0 2 3 148 142 260 
4 0 0 2 0 3 2 152 143 
10 0 0 2 0 2 1 145 
6 0 0 3 0 2 2 153 147 
1 0 0 2 0 5 1 146 
3 0 0 1 0 2 1 147 
3 0 0 3 0 3 1 151 
6 0 0 3 0 2 1 153 
4 0 0 2 0 2 1 152 
2 0 0 1 0 2 1 154 
8 0 0 6 0 6 1 157 
10 0 0 3 0 2 1 157 
8 0 0 1 0 1 1 157 
10 0 0 3 0 2 1 157 
9 0 0 2 0 3 1 157 
2 0 0 3 0 3 1 157 
0 0 0 0 0 0 1 262 
0 0 0 0 0 0 3 159 160 168 
9 0 0 0 1 1 3 167 164 161 
5 0 0 0 2 1 3 165 164 162 
8 0 0 0 5 4 1 163 
8 0 0 0 2 1 4 172 169 167 166 
7 0 0 0 2 4 3 172 169 165 
8 0 0 0 2 3 2 172 166 
5 0 0 0 2 2 1 166 
4 0 0 0 2 4 2 171 170 
4 0 0 0 1 2 2 171 170 
1 0 0 0 6 3 1 169 
4 0 0 0 1 2 1 170 
1 0 0 0 2 1 1 173 
2 0 0 0 5 3 1 173 
1 0 0 0 2 3 1 173 
10 0 0 0 4 2 2 176 174 
4 0 0 0 2 2 2 177 175 
9 0 0 0 2 3 2 178 212 
1 0 0 0 3 1 1 177 
5 0 0 0 3 4 1 179 
6 0 0 0 1 4 1 179 
0 0 0 0 0 0 1 262 
0 0 0 0 0 0 3 181 183 184 
5 0 0 1 1 0 3 194 190 182 
1 0 0 6 1 0 2 195 185 
8 0 0 1 3 0 4 194 190 189 187 
5 0 0 4 5 0 4 194 190 189 187 
7 0 0 1 2 0 2 189 186 
8 0 0 1 2 0 1 187 
10 0 0 2 2 0 1 188 
2 0 0 2 2 0 4 198 197 193 191 
7 0 0 4 2 0 3 197 191 208 
1 0 0 2 3 0 2 197 193 
9 0 0 3 1 0 1 192 
9 0 0 1 3 0 1 196 
7 0 0 3 2 0 1 196 
5 0 0 2 2 0 1 198 
5 0 0 3 2 0 1 198 
2 0 0 3 3 0 1 199 
3 0 0 5 4 0 1 200 
5 0 0 2 3 0 1 199 
2 0 0 1 2 0 1 201 
1 0 0 3 5 0 1 201 
0 0 0 0 0 0 1 262 
0 0 0 0 0 0 3 203 207 212 
10 0 0 0 0 1 2 206 204 
5 0 0 0 0 6 1 205 
2 0 0 0 0 4 3 211 210 208 
2 0 0 0 0 2 3 211 210 208 
8 0 0 0 0 3 3 210 209 223 
7 0 0 0 0 3 1 209 
4 0 0 0 0 2 1 213 
3 0 0 0 0 1 1 213 
7 0 0 0 0 1 1 213 
2 0 0 0 0 2 1 213 
0 0 0 0 0 0 1 262 
0 0 0 0 0 0 3 215 216 217 
10 0 0 0 0 1 3 224 219 218 
4 0 0 0 0 2 3 224 220 219 
7 0 0 0 0 3 3 224 223 222 
1 0 0 0 0 6 1 220 
3 0 0 0 0 2 2 223 222 
2 0 0 0 0 1 1 221 
4 0 0 0 0 3 1 222 
3 0 0 0 0 2 1 225 
10 0 0 0 0 1 1 225 
2 0 0 0 0 4 1 225 
0 0 0 0 0 0 1 262 
0 0 0 0 0 0 5 227 229 234 235 236 
8 0 0 0 0 1 2 233 228 
9 0 0 0 0 3 1 230 
10 0 0 0 0 2 1 230 
7 0 0 0 0 4 1 231 
9 0 0 0 0 1 1 232 
2 0 0 0 0 2 1 237 
5 0 0 0 0 1 1 237 
8 0 0 0 0 5 1 237 
1 0 0 0 0 2 1 237 
1 0 0 0 0 4 1 237 
0 0 0 0 0 0 1 262 
0 0 0 0 0 0 3 239 240 241 
6 0 1 0 0 0 2 243 242 
5 0 1 0 0 0 2 243 242 
9 0 2 0 0 0 2 243 242 
8 0 4 0 0 0 2 245 244 
10 0 2 0 0 0 2 248 246 
5 0 3 0 0 0 2 248 247 
4 0 1 0 0 0 1 246 
2 0 4 0 0 0 1 247 
8 0 4 0 0 0 1 249 
1 0 3 0 0 0 1 249 
0 0 0 0 0 0 1 262 
0 0 0 0 0 0 2 251 253 
9 0 1 0 0 0 1 252 
7 0 3 0 0 0 2 256 254 
4 0 1 0 0 0 1 255 
5 0 1 0 0 0 2 258 257 
1 0 3 0 0 0 2 258 257 
3 0 4 0 0 0 2 260 259 
2 0 2 0 0 0 1 260 
5 0 3 0 0 0 1 259 
2 0 3 0 0 0 1 261 
1 0 4 0 0 0 1 261 
0 0 0 0 0 0 1 262 
0 0 0 0 0 0 0 
